solution status: optimal solution found
objective value:                                 4275
roecke                                             23 	(obj:45)
hosen                                             104 	(obj:60)
__ObjOffset@3                                       1 	(obj:-3000)
